49
PFBA@pore d=5.5
O      2.750000     0.000000   -10.000000
O      1.944544     1.944544   -10.000000
O      0.000000     2.750000   -10.000000
O     -1.944544     1.944544   -10.000000
O     -2.750000     0.000000   -10.000000
O     -1.944544    -1.944544   -10.000000
O     -0.000000    -2.750000   -10.000000
O      1.944544    -1.944544   -10.000000
O      2.750000     0.000000    -3.333333
O      1.944544     1.944544    -3.333333
O      0.000000     2.750000    -3.333333
O     -1.944544     1.944544    -3.333333
O     -2.750000     0.000000    -3.333333
O     -1.944544    -1.944544    -3.333333
O     -0.000000    -2.750000    -3.333333
O      1.944544    -1.944544    -3.333333
O      2.750000     0.000000     3.333333
O      1.944544     1.944544     3.333333
O      0.000000     2.750000     3.333333
O     -1.944544     1.944544     3.333333
O     -2.750000     0.000000     3.333333
O     -1.944544    -1.944544     3.333333
O     -0.000000    -2.750000     3.333333
O      1.944544    -1.944544     3.333333
O      2.750000     0.000000    10.000000
O      1.944544     1.944544    10.000000
O      0.000000     2.750000    10.000000
O     -1.944544     1.944544    10.000000
O     -2.750000     0.000000    10.000000
O     -1.944544    -1.944544    10.000000
O     -0.000000    -2.750000    10.000000
O      1.944544    -1.944544    10.000000
C      0.000000     0.000000     0.000000
F      0.000000     1.350000     0.000000
F      0.000000    -1.350000     0.000000
C      1.540000     0.000000     0.000000
F      1.540000     1.350000     0.000000
F      1.540000    -1.350000     0.000000
C      3.080000     0.000000     0.000000
F      3.080000     1.350000     0.000000
F      3.080000    -1.350000     0.000000
C      4.620000     0.000000     0.000000
F      5.295000     1.169100     0.000000
F      5.295000    -1.169100     0.000000
F      5.970000     0.000000     0.000000
C     -1.540000     0.000000     0.000000
O     -2.770000     0.500000     0.000000
O     -2.040000    -1.200000     0.000000
H     -2.040000    -2.170000     0.000000
