32
Pore d=7.0
O      3.500000     0.000000   -10.000000
O      2.474874     2.474874   -10.000000
O      0.000000     3.500000   -10.000000
O     -2.474874     2.474874   -10.000000
O     -3.500000     0.000000   -10.000000
O     -2.474874    -2.474874   -10.000000
O     -0.000000    -3.500000   -10.000000
O      2.474874    -2.474874   -10.000000
O      3.500000     0.000000    -3.333333
O      2.474874     2.474874    -3.333333
O      0.000000     3.500000    -3.333333
O     -2.474874     2.474874    -3.333333
O     -3.500000     0.000000    -3.333333
O     -2.474874    -2.474874    -3.333333
O     -0.000000    -3.500000    -3.333333
O      2.474874    -2.474874    -3.333333
O      3.500000     0.000000     3.333333
O      2.474874     2.474874     3.333333
O      0.000000     3.500000     3.333333
O     -2.474874     2.474874     3.333333
O     -3.500000     0.000000     3.333333
O     -2.474874    -2.474874     3.333333
O     -0.000000    -3.500000     3.333333
O      2.474874    -2.474874     3.333333
O      3.500000     0.000000    10.000000
O      2.474874     2.474874    10.000000
O      0.000000     3.500000    10.000000
O     -2.474874     2.474874    10.000000
O     -3.500000     0.000000    10.000000
O     -2.474874    -2.474874    10.000000
O     -0.000000    -3.500000    10.000000
O      2.474874    -2.474874    10.000000
