32
Pore d=11.0
O      5.500000     0.000000   -10.000000
O      3.889087     3.889087   -10.000000
O      0.000000     5.500000   -10.000000
O     -3.889087     3.889087   -10.000000
O     -5.500000     0.000000   -10.000000
O     -3.889087    -3.889087   -10.000000
O     -0.000000    -5.500000   -10.000000
O      3.889087    -3.889087   -10.000000
O      5.500000     0.000000    -3.333333
O      3.889087     3.889087    -3.333333
O      0.000000     5.500000    -3.333333
O     -3.889087     3.889087    -3.333333
O     -5.500000     0.000000    -3.333333
O     -3.889087    -3.889087    -3.333333
O     -0.000000    -5.500000    -3.333333
O      3.889087    -3.889087    -3.333333
O      5.500000     0.000000     3.333333
O      3.889087     3.889087     3.333333
O      0.000000     5.500000     3.333333
O     -3.889087     3.889087     3.333333
O     -5.500000     0.000000     3.333333
O     -3.889087    -3.889087     3.333333
O     -0.000000    -5.500000     3.333333
O      3.889087    -3.889087     3.333333
O      5.500000     0.000000    10.000000
O      3.889087     3.889087    10.000000
O      0.000000     5.500000    10.000000
O     -3.889087     3.889087    10.000000
O     -5.500000     0.000000    10.000000
O     -3.889087    -3.889087    10.000000
O     -0.000000    -5.500000    10.000000
O      3.889087    -3.889087    10.000000
