32
Pore d=5.79
O      2.895000     0.000000   -10.000000
O      2.047074     2.047074   -10.000000
O      0.000000     2.895000   -10.000000
O     -2.047074     2.047074   -10.000000
O     -2.895000     0.000000   -10.000000
O     -2.047074    -2.047074   -10.000000
O     -0.000000    -2.895000   -10.000000
O      2.047074    -2.047074   -10.000000
O      2.895000     0.000000    -3.333333
O      2.047074     2.047074    -3.333333
O      0.000000     2.895000    -3.333333
O     -2.047074     2.047074    -3.333333
O     -2.895000     0.000000    -3.333333
O     -2.047074    -2.047074    -3.333333
O     -0.000000    -2.895000    -3.333333
O      2.047074    -2.047074    -3.333333
O      2.895000     0.000000     3.333333
O      2.047074     2.047074     3.333333
O      0.000000     2.895000     3.333333
O     -2.047074     2.047074     3.333333
O     -2.895000     0.000000     3.333333
O     -2.047074    -2.047074     3.333333
O     -0.000000    -2.895000     3.333333
O      2.047074    -2.047074     3.333333
O      2.895000     0.000000    10.000000
O      2.047074     2.047074    10.000000
O      0.000000     2.895000    10.000000
O     -2.047074     2.047074    10.000000
O     -2.895000     0.000000    10.000000
O     -2.047074    -2.047074    10.000000
O     -0.000000    -2.895000    10.000000
O      2.047074    -2.047074    10.000000
