32
Pore d=14.0
O      7.000000     0.000000   -10.000000
O      4.949747     4.949747   -10.000000
O      0.000000     7.000000   -10.000000
O     -4.949747     4.949747   -10.000000
O     -7.000000     0.000000   -10.000000
O     -4.949747    -4.949747   -10.000000
O     -0.000000    -7.000000   -10.000000
O      4.949747    -4.949747   -10.000000
O      7.000000     0.000000    -3.333333
O      4.949747     4.949747    -3.333333
O      0.000000     7.000000    -3.333333
O     -4.949747     4.949747    -3.333333
O     -7.000000     0.000000    -3.333333
O     -4.949747    -4.949747    -3.333333
O     -0.000000    -7.000000    -3.333333
O      4.949747    -4.949747    -3.333333
O      7.000000     0.000000     3.333333
O      4.949747     4.949747     3.333333
O      0.000000     7.000000     3.333333
O     -4.949747     4.949747     3.333333
O     -7.000000     0.000000     3.333333
O     -4.949747    -4.949747     3.333333
O     -0.000000    -7.000000     3.333333
O      4.949747    -4.949747     3.333333
O      7.000000     0.000000    10.000000
O      4.949747     4.949747    10.000000
O      0.000000     7.000000    10.000000
O     -4.949747     4.949747    10.000000
O     -7.000000     0.000000    10.000000
O     -4.949747    -4.949747    10.000000
O     -0.000000    -7.000000    10.000000
O      4.949747    -4.949747    10.000000
