32
Pore d=7.5
O      3.750000     0.000000   -10.000000
O      2.651650     2.651650   -10.000000
O      0.000000     3.750000   -10.000000
O     -2.651650     2.651650   -10.000000
O     -3.750000     0.000000   -10.000000
O     -2.651650    -2.651650   -10.000000
O     -0.000000    -3.750000   -10.000000
O      2.651650    -2.651650   -10.000000
O      3.750000     0.000000    -3.333333
O      2.651650     2.651650    -3.333333
O      0.000000     3.750000    -3.333333
O     -2.651650     2.651650    -3.333333
O     -3.750000     0.000000    -3.333333
O     -2.651650    -2.651650    -3.333333
O     -0.000000    -3.750000    -3.333333
O      2.651650    -2.651650    -3.333333
O      3.750000     0.000000     3.333333
O      2.651650     2.651650     3.333333
O      0.000000     3.750000     3.333333
O     -2.651650     2.651650     3.333333
O     -3.750000     0.000000     3.333333
O     -2.651650    -2.651650     3.333333
O     -0.000000    -3.750000     3.333333
O      2.651650    -2.651650     3.333333
O      3.750000     0.000000    10.000000
O      2.651650     2.651650    10.000000
O      0.000000     3.750000    10.000000
O     -2.651650     2.651650    10.000000
O     -3.750000     0.000000    10.000000
O     -2.651650    -2.651650    10.000000
O     -0.000000    -3.750000    10.000000
O      2.651650    -2.651650    10.000000
