32
Pore d=11.58
O      5.790000     0.000000   -10.000000
O      4.094148     4.094148   -10.000000
O      0.000000     5.790000   -10.000000
O     -4.094148     4.094148   -10.000000
O     -5.790000     0.000000   -10.000000
O     -4.094148    -4.094148   -10.000000
O     -0.000000    -5.790000   -10.000000
O      4.094148    -4.094148   -10.000000
O      5.790000     0.000000    -3.333333
O      4.094148     4.094148    -3.333333
O      0.000000     5.790000    -3.333333
O     -4.094148     4.094148    -3.333333
O     -5.790000     0.000000    -3.333333
O     -4.094148    -4.094148    -3.333333
O     -0.000000    -5.790000    -3.333333
O      4.094148    -4.094148    -3.333333
O      5.790000     0.000000     3.333333
O      4.094148     4.094148     3.333333
O      0.000000     5.790000     3.333333
O     -4.094148     4.094148     3.333333
O     -5.790000     0.000000     3.333333
O     -4.094148    -4.094148     3.333333
O     -0.000000    -5.790000     3.333333
O      4.094148    -4.094148     3.333333
O      5.790000     0.000000    10.000000
O      4.094148     4.094148    10.000000
O      0.000000     5.790000    10.000000
O     -4.094148     4.094148    10.000000
O     -5.790000     0.000000    10.000000
O     -4.094148    -4.094148    10.000000
O     -0.000000    -5.790000    10.000000
O      4.094148    -4.094148    10.000000
