32
Pore d=13.0
O      6.500000     0.000000   -10.000000
O      4.596194     4.596194   -10.000000
O      0.000000     6.500000   -10.000000
O     -4.596194     4.596194   -10.000000
O     -6.500000     0.000000   -10.000000
O     -4.596194    -4.596194   -10.000000
O     -0.000000    -6.500000   -10.000000
O      4.596194    -4.596194   -10.000000
O      6.500000     0.000000    -3.333333
O      4.596194     4.596194    -3.333333
O      0.000000     6.500000    -3.333333
O     -4.596194     4.596194    -3.333333
O     -6.500000     0.000000    -3.333333
O     -4.596194    -4.596194    -3.333333
O     -0.000000    -6.500000    -3.333333
O      4.596194    -4.596194    -3.333333
O      6.500000     0.000000     3.333333
O      4.596194     4.596194     3.333333
O      0.000000     6.500000     3.333333
O     -4.596194     4.596194     3.333333
O     -6.500000     0.000000     3.333333
O     -4.596194    -4.596194     3.333333
O     -0.000000    -6.500000     3.333333
O      4.596194    -4.596194     3.333333
O      6.500000     0.000000    10.000000
O      4.596194     4.596194    10.000000
O      0.000000     6.500000    10.000000
O     -4.596194     4.596194    10.000000
O     -6.500000     0.000000    10.000000
O     -4.596194    -4.596194    10.000000
O     -0.000000    -6.500000    10.000000
O      4.596194    -4.596194    10.000000
