32
Pore d=10.0
O      5.000000     0.000000   -10.000000
O      3.535534     3.535534   -10.000000
O      0.000000     5.000000   -10.000000
O     -3.535534     3.535534   -10.000000
O     -5.000000     0.000000   -10.000000
O     -3.535534    -3.535534   -10.000000
O     -0.000000    -5.000000   -10.000000
O      3.535534    -3.535534   -10.000000
O      5.000000     0.000000    -3.333333
O      3.535534     3.535534    -3.333333
O      0.000000     5.000000    -3.333333
O     -3.535534     3.535534    -3.333333
O     -5.000000     0.000000    -3.333333
O     -3.535534    -3.535534    -3.333333
O     -0.000000    -5.000000    -3.333333
O      3.535534    -3.535534    -3.333333
O      5.000000     0.000000     3.333333
O      3.535534     3.535534     3.333333
O      0.000000     5.000000     3.333333
O     -3.535534     3.535534     3.333333
O     -5.000000     0.000000     3.333333
O     -3.535534    -3.535534     3.333333
O     -0.000000    -5.000000     3.333333
O      3.535534    -3.535534     3.333333
O      5.000000     0.000000    10.000000
O      3.535534     3.535534    10.000000
O      0.000000     5.000000    10.000000
O     -3.535534     3.535534    10.000000
O     -5.000000     0.000000    10.000000
O     -3.535534    -3.535534    10.000000
O     -0.000000    -5.000000    10.000000
O      3.535534    -3.535534    10.000000
