32
Pore d=8.68
O      4.340000     0.000000   -10.000000
O      3.068843     3.068843   -10.000000
O      0.000000     4.340000   -10.000000
O     -3.068843     3.068843   -10.000000
O     -4.340000     0.000000   -10.000000
O     -3.068843    -3.068843   -10.000000
O     -0.000000    -4.340000   -10.000000
O      3.068843    -3.068843   -10.000000
O      4.340000     0.000000    -3.333333
O      3.068843     3.068843    -3.333333
O      0.000000     4.340000    -3.333333
O     -3.068843     3.068843    -3.333333
O     -4.340000     0.000000    -3.333333
O     -3.068843    -3.068843    -3.333333
O     -0.000000    -4.340000    -3.333333
O      3.068843    -3.068843    -3.333333
O      4.340000     0.000000     3.333333
O      3.068843     3.068843     3.333333
O      0.000000     4.340000     3.333333
O     -3.068843     3.068843     3.333333
O     -4.340000     0.000000     3.333333
O     -3.068843    -3.068843     3.333333
O     -0.000000    -4.340000     3.333333
O      3.068843    -3.068843     3.333333
O      4.340000     0.000000    10.000000
O      3.068843     3.068843    10.000000
O      0.000000     4.340000    10.000000
O     -3.068843     3.068843    10.000000
O     -4.340000     0.000000    10.000000
O     -3.068843    -3.068843    10.000000
O     -0.000000    -4.340000    10.000000
O      3.068843    -3.068843    10.000000
