32
Pore d=6.5
O      3.250000     0.000000   -10.000000
O      2.298097     2.298097   -10.000000
O      0.000000     3.250000   -10.000000
O     -2.298097     2.298097   -10.000000
O     -3.250000     0.000000   -10.000000
O     -2.298097    -2.298097   -10.000000
O     -0.000000    -3.250000   -10.000000
O      2.298097    -2.298097   -10.000000
O      3.250000     0.000000    -3.333333
O      2.298097     2.298097    -3.333333
O      0.000000     3.250000    -3.333333
O     -2.298097     2.298097    -3.333333
O     -3.250000     0.000000    -3.333333
O     -2.298097    -2.298097    -3.333333
O     -0.000000    -3.250000    -3.333333
O      2.298097    -2.298097    -3.333333
O      3.250000     0.000000     3.333333
O      2.298097     2.298097     3.333333
O      0.000000     3.250000     3.333333
O     -2.298097     2.298097     3.333333
O     -3.250000     0.000000     3.333333
O     -2.298097    -2.298097     3.333333
O     -0.000000    -3.250000     3.333333
O      2.298097    -2.298097     3.333333
O      3.250000     0.000000    10.000000
O      2.298097     2.298097    10.000000
O      0.000000     3.250000    10.000000
O     -2.298097     2.298097    10.000000
O     -3.250000     0.000000    10.000000
O     -2.298097    -2.298097    10.000000
O     -0.000000    -3.250000    10.000000
O      2.298097    -2.298097    10.000000
