32
Cylindrical pore d=9.50 A
O      4.750000     0.000000   -10.000000
O      3.358757     3.358757   -10.000000
O      0.000000     4.750000   -10.000000
O     -3.358757     3.358757   -10.000000
O     -4.750000     0.000000   -10.000000
O     -3.358757    -3.358757   -10.000000
O     -0.000000    -4.750000   -10.000000
O      3.358757    -3.358757   -10.000000
O      4.750000     0.000000    -3.333333
O      3.358757     3.358757    -3.333333
O      0.000000     4.750000    -3.333333
O     -3.358757     3.358757    -3.333333
O     -4.750000     0.000000    -3.333333
O     -3.358757    -3.358757    -3.333333
O     -0.000000    -4.750000    -3.333333
O      3.358757    -3.358757    -3.333333
O      4.750000     0.000000     3.333333
O      3.358757     3.358757     3.333333
O      0.000000     4.750000     3.333333
O     -3.358757     3.358757     3.333333
O     -4.750000     0.000000     3.333333
O     -3.358757    -3.358757     3.333333
O     -0.000000    -4.750000     3.333333
O      3.358757    -3.358757     3.333333
O      4.750000     0.000000    10.000000
O      3.358757     3.358757    10.000000
O      0.000000     4.750000    10.000000
O     -3.358757     3.358757    10.000000
O     -4.750000     0.000000    10.000000
O     -3.358757    -3.358757    10.000000
O     -0.000000    -4.750000    10.000000
O      3.358757    -3.358757    10.000000
