32
Cylindrical pore d=8.50 A
O      4.250000     0.000000   -10.000000
O      3.005204     3.005204   -10.000000
O      0.000000     4.250000   -10.000000
O     -3.005204     3.005204   -10.000000
O     -4.250000     0.000000   -10.000000
O     -3.005204    -3.005204   -10.000000
O     -0.000000    -4.250000   -10.000000
O      3.005204    -3.005204   -10.000000
O      4.250000     0.000000    -3.333333
O      3.005204     3.005204    -3.333333
O      0.000000     4.250000    -3.333333
O     -3.005204     3.005204    -3.333333
O     -4.250000     0.000000    -3.333333
O     -3.005204    -3.005204    -3.333333
O     -0.000000    -4.250000    -3.333333
O      3.005204    -3.005204    -3.333333
O      4.250000     0.000000     3.333333
O      3.005204     3.005204     3.333333
O      0.000000     4.250000     3.333333
O     -3.005204     3.005204     3.333333
O     -4.250000     0.000000     3.333333
O     -3.005204    -3.005204     3.333333
O     -0.000000    -4.250000     3.333333
O      3.005204    -3.005204     3.333333
O      4.250000     0.000000    10.000000
O      3.005204     3.005204    10.000000
O      0.000000     4.250000    10.000000
O     -3.005204     3.005204    10.000000
O     -4.250000     0.000000    10.000000
O     -3.005204    -3.005204    10.000000
O     -0.000000    -4.250000    10.000000
O      3.005204    -3.005204    10.000000
