32
Cylindrical pore d=11.50 A
O      5.750000     0.000000   -10.000000
O      4.065864     4.065864   -10.000000
O      0.000000     5.750000   -10.000000
O     -4.065864     4.065864   -10.000000
O     -5.750000     0.000000   -10.000000
O     -4.065864    -4.065864   -10.000000
O     -0.000000    -5.750000   -10.000000
O      4.065864    -4.065864   -10.000000
O      5.750000     0.000000    -3.333333
O      4.065864     4.065864    -3.333333
O      0.000000     5.750000    -3.333333
O     -4.065864     4.065864    -3.333333
O     -5.750000     0.000000    -3.333333
O     -4.065864    -4.065864    -3.333333
O     -0.000000    -5.750000    -3.333333
O      4.065864    -4.065864    -3.333333
O      5.750000     0.000000     3.333333
O      4.065864     4.065864     3.333333
O      0.000000     5.750000     3.333333
O     -4.065864     4.065864     3.333333
O     -5.750000     0.000000     3.333333
O     -4.065864    -4.065864     3.333333
O     -0.000000    -5.750000     3.333333
O      4.065864    -4.065864     3.333333
O      5.750000     0.000000    10.000000
O      4.065864     4.065864    10.000000
O      0.000000     5.750000    10.000000
O     -4.065864     4.065864    10.000000
O     -5.750000     0.000000    10.000000
O     -4.065864    -4.065864    10.000000
O     -0.000000    -5.750000    10.000000
O      4.065864    -4.065864    10.000000
