32
Cylindrical pore d=12.00 A
O      6.000000     0.000000   -10.000000
O      4.242641     4.242641   -10.000000
O      0.000000     6.000000   -10.000000
O     -4.242641     4.242641   -10.000000
O     -6.000000     0.000000   -10.000000
O     -4.242641    -4.242641   -10.000000
O     -0.000000    -6.000000   -10.000000
O      4.242641    -4.242641   -10.000000
O      6.000000     0.000000    -3.333333
O      4.242641     4.242641    -3.333333
O      0.000000     6.000000    -3.333333
O     -4.242641     4.242641    -3.333333
O     -6.000000     0.000000    -3.333333
O     -4.242641    -4.242641    -3.333333
O     -0.000000    -6.000000    -3.333333
O      4.242641    -4.242641    -3.333333
O      6.000000     0.000000     3.333333
O      4.242641     4.242641     3.333333
O      0.000000     6.000000     3.333333
O     -4.242641     4.242641     3.333333
O     -6.000000     0.000000     3.333333
O     -4.242641    -4.242641     3.333333
O     -0.000000    -6.000000     3.333333
O      4.242641    -4.242641     3.333333
O      6.000000     0.000000    10.000000
O      4.242641     4.242641    10.000000
O      0.000000     6.000000    10.000000
O     -4.242641     4.242641    10.000000
O     -6.000000     0.000000    10.000000
O     -4.242641    -4.242641    10.000000
O     -0.000000    -6.000000    10.000000
O      4.242641    -4.242641    10.000000
