32
Cylindrical pore d=4.50 A
O      2.250000     0.000000   -10.000000
O      1.590990     1.590990   -10.000000
O      0.000000     2.250000   -10.000000
O     -1.590990     1.590990   -10.000000
O     -2.250000     0.000000   -10.000000
O     -1.590990    -1.590990   -10.000000
O     -0.000000    -2.250000   -10.000000
O      1.590990    -1.590990   -10.000000
O      2.250000     0.000000    -3.333333
O      1.590990     1.590990    -3.333333
O      0.000000     2.250000    -3.333333
O     -1.590990     1.590990    -3.333333
O     -2.250000     0.000000    -3.333333
O     -1.590990    -1.590990    -3.333333
O     -0.000000    -2.250000    -3.333333
O      1.590990    -1.590990    -3.333333
O      2.250000     0.000000     3.333333
O      1.590990     1.590990     3.333333
O      0.000000     2.250000     3.333333
O     -1.590990     1.590990     3.333333
O     -2.250000     0.000000     3.333333
O     -1.590990    -1.590990     3.333333
O     -0.000000    -2.250000     3.333333
O      1.590990    -1.590990     3.333333
O      2.250000     0.000000    10.000000
O      1.590990     1.590990    10.000000
O      0.000000     2.250000    10.000000
O     -1.590990     1.590990    10.000000
O     -2.250000     0.000000    10.000000
O     -1.590990    -1.590990    10.000000
O     -0.000000    -2.250000    10.000000
O      1.590990    -1.590990    10.000000
