32
Cylindrical pore d=8.68 A
O      4.341608     0.000000   -10.000000
O      3.069980     3.069980   -10.000000
O      0.000000     4.341608   -10.000000
O     -3.069980     3.069980   -10.000000
O     -4.341608     0.000000   -10.000000
O     -3.069980    -3.069980   -10.000000
O     -0.000000    -4.341608   -10.000000
O      3.069980    -3.069980   -10.000000
O      4.341608     0.000000    -3.333333
O      3.069980     3.069980    -3.333333
O      0.000000     4.341608    -3.333333
O     -3.069980     3.069980    -3.333333
O     -4.341608     0.000000    -3.333333
O     -3.069980    -3.069980    -3.333333
O     -0.000000    -4.341608    -3.333333
O      3.069980    -3.069980    -3.333333
O      4.341608     0.000000     3.333333
O      3.069980     3.069980     3.333333
O      0.000000     4.341608     3.333333
O     -3.069980     3.069980     3.333333
O     -4.341608     0.000000     3.333333
O     -3.069980    -3.069980     3.333333
O     -0.000000    -4.341608     3.333333
O      3.069980    -3.069980     3.333333
O      4.341608     0.000000    10.000000
O      3.069980     3.069980    10.000000
O      0.000000     4.341608    10.000000
O     -3.069980     3.069980    10.000000
O     -4.341608     0.000000    10.000000
O     -3.069980    -3.069980    10.000000
O     -0.000000    -4.341608    10.000000
O      3.069980    -3.069980    10.000000
