32
Cylindrical pore d=11.58 A
O      5.788810     0.000000   -10.000000
O      4.093307     4.093307   -10.000000
O      0.000000     5.788810   -10.000000
O     -4.093307     4.093307   -10.000000
O     -5.788810     0.000000   -10.000000
O     -4.093307    -4.093307   -10.000000
O     -0.000000    -5.788810   -10.000000
O      4.093307    -4.093307   -10.000000
O      5.788810     0.000000    -3.333333
O      4.093307     4.093307    -3.333333
O      0.000000     5.788810    -3.333333
O     -4.093307     4.093307    -3.333333
O     -5.788810     0.000000    -3.333333
O     -4.093307    -4.093307    -3.333333
O     -0.000000    -5.788810    -3.333333
O      4.093307    -4.093307    -3.333333
O      5.788810     0.000000     3.333333
O      4.093307     4.093307     3.333333
O      0.000000     5.788810     3.333333
O     -4.093307     4.093307     3.333333
O     -5.788810     0.000000     3.333333
O     -4.093307    -4.093307     3.333333
O     -0.000000    -5.788810     3.333333
O      4.093307    -4.093307     3.333333
O      5.788810     0.000000    10.000000
O      4.093307     4.093307    10.000000
O      0.000000     5.788810    10.000000
O     -4.093307     4.093307    10.000000
O     -5.788810     0.000000    10.000000
O     -4.093307    -4.093307    10.000000
O     -0.000000    -5.788810    10.000000
O      4.093307    -4.093307    10.000000
