32
Cylindrical pore d=6.00 A
O      3.000000     0.000000   -10.000000
O      2.121320     2.121320   -10.000000
O      0.000000     3.000000   -10.000000
O     -2.121320     2.121320   -10.000000
O     -3.000000     0.000000   -10.000000
O     -2.121320    -2.121320   -10.000000
O     -0.000000    -3.000000   -10.000000
O      2.121320    -2.121320   -10.000000
O      3.000000     0.000000    -3.333333
O      2.121320     2.121320    -3.333333
O      0.000000     3.000000    -3.333333
O     -2.121320     2.121320    -3.333333
O     -3.000000     0.000000    -3.333333
O     -2.121320    -2.121320    -3.333333
O     -0.000000    -3.000000    -3.333333
O      2.121320    -2.121320    -3.333333
O      3.000000     0.000000     3.333333
O      2.121320     2.121320     3.333333
O      0.000000     3.000000     3.333333
O     -2.121320     2.121320     3.333333
O     -3.000000     0.000000     3.333333
O     -2.121320    -2.121320     3.333333
O     -0.000000    -3.000000     3.333333
O      2.121320    -2.121320     3.333333
O      3.000000     0.000000    10.000000
O      2.121320     2.121320    10.000000
O      0.000000     3.000000    10.000000
O     -2.121320     2.121320    10.000000
O     -3.000000     0.000000    10.000000
O     -2.121320    -2.121320    10.000000
O     -0.000000    -3.000000    10.000000
O      2.121320    -2.121320    10.000000
