32
Cylindrical pore d=5.00 A
O      2.500000     0.000000   -10.000000
O      1.767767     1.767767   -10.000000
O      0.000000     2.500000   -10.000000
O     -1.767767     1.767767   -10.000000
O     -2.500000     0.000000   -10.000000
O     -1.767767    -1.767767   -10.000000
O     -0.000000    -2.500000   -10.000000
O      1.767767    -1.767767   -10.000000
O      2.500000     0.000000    -3.333333
O      1.767767     1.767767    -3.333333
O      0.000000     2.500000    -3.333333
O     -1.767767     1.767767    -3.333333
O     -2.500000     0.000000    -3.333333
O     -1.767767    -1.767767    -3.333333
O     -0.000000    -2.500000    -3.333333
O      1.767767    -1.767767    -3.333333
O      2.500000     0.000000     3.333333
O      1.767767     1.767767     3.333333
O      0.000000     2.500000     3.333333
O     -1.767767     1.767767     3.333333
O     -2.500000     0.000000     3.333333
O     -1.767767    -1.767767     3.333333
O     -0.000000    -2.500000     3.333333
O      1.767767    -1.767767     3.333333
O      2.500000     0.000000    10.000000
O      1.767767     1.767767    10.000000
O      0.000000     2.500000    10.000000
O     -1.767767     1.767767    10.000000
O     -2.500000     0.000000    10.000000
O     -1.767767    -1.767767    10.000000
O     -0.000000    -2.500000    10.000000
O      1.767767    -1.767767    10.000000
