32
Cylindrical pore d=13.50 A
O      6.750000     0.000000   -10.000000
O      4.772971     4.772971   -10.000000
O      0.000000     6.750000   -10.000000
O     -4.772971     4.772971   -10.000000
O     -6.750000     0.000000   -10.000000
O     -4.772971    -4.772971   -10.000000
O     -0.000000    -6.750000   -10.000000
O      4.772971    -4.772971   -10.000000
O      6.750000     0.000000    -3.333333
O      4.772971     4.772971    -3.333333
O      0.000000     6.750000    -3.333333
O     -4.772971     4.772971    -3.333333
O     -6.750000     0.000000    -3.333333
O     -4.772971    -4.772971    -3.333333
O     -0.000000    -6.750000    -3.333333
O      4.772971    -4.772971    -3.333333
O      6.750000     0.000000     3.333333
O      4.772971     4.772971     3.333333
O      0.000000     6.750000     3.333333
O     -4.772971     4.772971     3.333333
O     -6.750000     0.000000     3.333333
O     -4.772971    -4.772971     3.333333
O     -0.000000    -6.750000     3.333333
O      4.772971    -4.772971     3.333333
O      6.750000     0.000000    10.000000
O      4.772971     4.772971    10.000000
O      0.000000     6.750000    10.000000
O     -4.772971     4.772971    10.000000
O     -6.750000     0.000000    10.000000
O     -4.772971    -4.772971    10.000000
O     -0.000000    -6.750000    10.000000
O      4.772971    -4.772971    10.000000
