32
Cylindrical pore d=5.50 A
O      2.750000     0.000000   -10.000000
O      1.944544     1.944544   -10.000000
O      0.000000     2.750000   -10.000000
O     -1.944544     1.944544   -10.000000
O     -2.750000     0.000000   -10.000000
O     -1.944544    -1.944544   -10.000000
O     -0.000000    -2.750000   -10.000000
O      1.944544    -1.944544   -10.000000
O      2.750000     0.000000    -3.333333
O      1.944544     1.944544    -3.333333
O      0.000000     2.750000    -3.333333
O     -1.944544     1.944544    -3.333333
O     -2.750000     0.000000    -3.333333
O     -1.944544    -1.944544    -3.333333
O     -0.000000    -2.750000    -3.333333
O      1.944544    -1.944544    -3.333333
O      2.750000     0.000000     3.333333
O      1.944544     1.944544     3.333333
O      0.000000     2.750000     3.333333
O     -1.944544     1.944544     3.333333
O     -2.750000     0.000000     3.333333
O     -1.944544    -1.944544     3.333333
O     -0.000000    -2.750000     3.333333
O      1.944544    -1.944544     3.333333
O      2.750000     0.000000    10.000000
O      1.944544     1.944544    10.000000
O      0.000000     2.750000    10.000000
O     -1.944544     1.944544    10.000000
O     -2.750000     0.000000    10.000000
O     -1.944544    -1.944544    10.000000
O     -0.000000    -2.750000    10.000000
O      1.944544    -1.944544    10.000000
