58
PFOA in pore d=7.50 A
O      3.750000     0.000000   -10.000000
O      2.651650     2.651650   -10.000000
O      0.000000     3.750000   -10.000000
O     -2.651650     2.651650   -10.000000
O     -3.750000     0.000000   -10.000000
O     -2.651650    -2.651650   -10.000000
O     -0.000000    -3.750000   -10.000000
O      2.651650    -2.651650   -10.000000
O      3.750000     0.000000    -3.333333
O      2.651650     2.651650    -3.333333
O      0.000000     3.750000    -3.333333
O     -2.651650     2.651650    -3.333333
O     -3.750000     0.000000    -3.333333
O     -2.651650    -2.651650    -3.333333
O     -0.000000    -3.750000    -3.333333
O      2.651650    -2.651650    -3.333333
O      3.750000     0.000000     3.333333
O      2.651650     2.651650     3.333333
O      0.000000     3.750000     3.333333
O     -2.651650     2.651650     3.333333
O     -3.750000     0.000000     3.333333
O     -2.651650    -2.651650     3.333333
O     -0.000000    -3.750000     3.333333
O      2.651650    -2.651650     3.333333
O      3.750000     0.000000    10.000000
O      2.651650     2.651650    10.000000
O      0.000000     3.750000    10.000000
O     -2.651650     2.651650    10.000000
O     -3.750000     0.000000    10.000000
O     -2.651650    -2.651650    10.000000
O     -0.000000    -3.750000    10.000000
O      2.651650    -2.651650    10.000000
C      0.000000     0.000000     0.000000
F      0.000000     1.350000     0.000000
F      0.000000    -1.350000     0.000000
C      1.540000     0.000000     0.000000
F      1.540000     1.350000     0.000000
F      1.540000    -1.350000     0.000000
C      3.080000     0.000000     0.000000
F      3.080000     1.350000     0.000000
F      3.080000    -1.350000     0.000000
C      4.620000     0.000000     0.000000
F      4.620000     1.350000     0.000000
F      4.620000    -1.350000     0.000000
C      6.160000     0.000000     0.000000
F      6.160000     1.350000     0.000000
F      6.160000    -1.350000     0.000000
C      7.700000     0.000000     0.000000
F      7.700000     1.350000     0.000000
F      7.700000    -1.350000     0.000000
C      9.240000     0.000000     0.000000
F      9.915000     1.169100     0.000000
F      9.915000    -1.169100     0.000000
F     10.590000     0.000000     0.000000
C     -1.540000     0.000000     0.000000
O     -2.770000     0.500000     0.000000
O     -2.040000    -1.200000     0.000000
H     -2.040000    -2.170000     0.000000
