32
Cylindrical pore d=9.00 A
O      4.500000     0.000000   -10.000000
O      3.181981     3.181981   -10.000000
O      0.000000     4.500000   -10.000000
O     -3.181981     3.181981   -10.000000
O     -4.500000     0.000000   -10.000000
O     -3.181981    -3.181981   -10.000000
O     -0.000000    -4.500000   -10.000000
O      3.181981    -3.181981   -10.000000
O      4.500000     0.000000    -3.333333
O      3.181981     3.181981    -3.333333
O      0.000000     4.500000    -3.333333
O     -3.181981     3.181981    -3.333333
O     -4.500000     0.000000    -3.333333
O     -3.181981    -3.181981    -3.333333
O     -0.000000    -4.500000    -3.333333
O      3.181981    -3.181981    -3.333333
O      4.500000     0.000000     3.333333
O      3.181981     3.181981     3.333333
O      0.000000     4.500000     3.333333
O     -3.181981     3.181981     3.333333
O     -4.500000     0.000000     3.333333
O     -3.181981    -3.181981     3.333333
O     -0.000000    -4.500000     3.333333
O      3.181981    -3.181981     3.333333
O      4.500000     0.000000    10.000000
O      3.181981     3.181981    10.000000
O      0.000000     4.500000    10.000000
O     -3.181981     3.181981    10.000000
O     -4.500000     0.000000    10.000000
O     -3.181981    -3.181981    10.000000
O     -0.000000    -4.500000    10.000000
O      3.181981    -3.181981    10.000000
