32
Cylindrical pore d=8.00 A
O      4.000000     0.000000   -10.000000
O      2.828427     2.828427   -10.000000
O      0.000000     4.000000   -10.000000
O     -2.828427     2.828427   -10.000000
O     -4.000000     0.000000   -10.000000
O     -2.828427    -2.828427   -10.000000
O     -0.000000    -4.000000   -10.000000
O      2.828427    -2.828427   -10.000000
O      4.000000     0.000000    -3.333333
O      2.828427     2.828427    -3.333333
O      0.000000     4.000000    -3.333333
O     -2.828427     2.828427    -3.333333
O     -4.000000     0.000000    -3.333333
O     -2.828427    -2.828427    -3.333333
O     -0.000000    -4.000000    -3.333333
O      2.828427    -2.828427    -3.333333
O      4.000000     0.000000     3.333333
O      2.828427     2.828427     3.333333
O      0.000000     4.000000     3.333333
O     -2.828427     2.828427     3.333333
O     -4.000000     0.000000     3.333333
O     -2.828427    -2.828427     3.333333
O     -0.000000    -4.000000     3.333333
O      2.828427    -2.828427     3.333333
O      4.000000     0.000000    10.000000
O      2.828427     2.828427    10.000000
O      0.000000     4.000000    10.000000
O     -2.828427     2.828427    10.000000
O     -4.000000     0.000000    10.000000
O     -2.828427    -2.828427    10.000000
O     -0.000000    -4.000000    10.000000
O      2.828427    -2.828427    10.000000
