32
Cylindrical pore d=4.00 A
O      2.000000     0.000000   -10.000000
O      1.414214     1.414214   -10.000000
O      0.000000     2.000000   -10.000000
O     -1.414214     1.414214   -10.000000
O     -2.000000     0.000000   -10.000000
O     -1.414214    -1.414214   -10.000000
O     -0.000000    -2.000000   -10.000000
O      1.414214    -1.414214   -10.000000
O      2.000000     0.000000    -3.333333
O      1.414214     1.414214    -3.333333
O      0.000000     2.000000    -3.333333
O     -1.414214     1.414214    -3.333333
O     -2.000000     0.000000    -3.333333
O     -1.414214    -1.414214    -3.333333
O     -0.000000    -2.000000    -3.333333
O      1.414214    -1.414214    -3.333333
O      2.000000     0.000000     3.333333
O      1.414214     1.414214     3.333333
O      0.000000     2.000000     3.333333
O     -1.414214     1.414214     3.333333
O     -2.000000     0.000000     3.333333
O     -1.414214    -1.414214     3.333333
O     -0.000000    -2.000000     3.333333
O      1.414214    -1.414214     3.333333
O      2.000000     0.000000    10.000000
O      1.414214     1.414214    10.000000
O      0.000000     2.000000    10.000000
O     -1.414214     1.414214    10.000000
O     -2.000000     0.000000    10.000000
O     -1.414214    -1.414214    10.000000
O     -0.000000    -2.000000    10.000000
O      1.414214    -1.414214    10.000000
