32
Cylindrical pore d=12.50 A
O      6.250000     0.000000   -10.000000
O      4.419417     4.419417   -10.000000
O      0.000000     6.250000   -10.000000
O     -4.419417     4.419417   -10.000000
O     -6.250000     0.000000   -10.000000
O     -4.419417    -4.419417   -10.000000
O     -0.000000    -6.250000   -10.000000
O      4.419417    -4.419417   -10.000000
O      6.250000     0.000000    -3.333333
O      4.419417     4.419417    -3.333333
O      0.000000     6.250000    -3.333333
O     -4.419417     4.419417    -3.333333
O     -6.250000     0.000000    -3.333333
O     -4.419417    -4.419417    -3.333333
O     -0.000000    -6.250000    -3.333333
O      4.419417    -4.419417    -3.333333
O      6.250000     0.000000     3.333333
O      4.419417     4.419417     3.333333
O      0.000000     6.250000     3.333333
O     -4.419417     4.419417     3.333333
O     -6.250000     0.000000     3.333333
O     -4.419417    -4.419417     3.333333
O     -0.000000    -6.250000     3.333333
O      4.419417    -4.419417     3.333333
O      6.250000     0.000000    10.000000
O      4.419417     4.419417    10.000000
O      0.000000     6.250000    10.000000
O     -4.419417     4.419417    10.000000
O     -6.250000     0.000000    10.000000
O     -4.419417    -4.419417    10.000000
O     -0.000000    -6.250000    10.000000
O      4.419417    -4.419417    10.000000
