32
Cylindrical pore d=5.79 A
O      2.894405     0.000000   -10.000000
O      2.046653     2.046653   -10.000000
O      0.000000     2.894405   -10.000000
O     -2.046653     2.046653   -10.000000
O     -2.894405     0.000000   -10.000000
O     -2.046653    -2.046653   -10.000000
O     -0.000000    -2.894405   -10.000000
O      2.046653    -2.046653   -10.000000
O      2.894405     0.000000    -3.333333
O      2.046653     2.046653    -3.333333
O      0.000000     2.894405    -3.333333
O     -2.046653     2.046653    -3.333333
O     -2.894405     0.000000    -3.333333
O     -2.046653    -2.046653    -3.333333
O     -0.000000    -2.894405    -3.333333
O      2.046653    -2.046653    -3.333333
O      2.894405     0.000000     3.333333
O      2.046653     2.046653     3.333333
O      0.000000     2.894405     3.333333
O     -2.046653     2.046653     3.333333
O     -2.894405     0.000000     3.333333
O     -2.046653    -2.046653     3.333333
O     -0.000000    -2.894405     3.333333
O      2.046653    -2.046653     3.333333
O      2.894405     0.000000    10.000000
O      2.046653     2.046653    10.000000
O      0.000000     2.894405    10.000000
O     -2.046653     2.046653    10.000000
O     -2.894405     0.000000    10.000000
O     -2.046653    -2.046653    10.000000
O     -0.000000    -2.894405    10.000000
O      2.046653    -2.046653    10.000000
