32
Cylindrical pore d=2.89 A
O      1.447203     0.000000   -10.000000
O      1.023327     1.023327   -10.000000
O      0.000000     1.447203   -10.000000
O     -1.023327     1.023327   -10.000000
O     -1.447203     0.000000   -10.000000
O     -1.023327    -1.023327   -10.000000
O     -0.000000    -1.447203   -10.000000
O      1.023327    -1.023327   -10.000000
O      1.447203     0.000000    -3.333333
O      1.023327     1.023327    -3.333333
O      0.000000     1.447203    -3.333333
O     -1.023327     1.023327    -3.333333
O     -1.447203     0.000000    -3.333333
O     -1.023327    -1.023327    -3.333333
O     -0.000000    -1.447203    -3.333333
O      1.023327    -1.023327    -3.333333
O      1.447203     0.000000     3.333333
O      1.023327     1.023327     3.333333
O      0.000000     1.447203     3.333333
O     -1.023327     1.023327     3.333333
O     -1.447203     0.000000     3.333333
O     -1.023327    -1.023327     3.333333
O     -0.000000    -1.447203     3.333333
O      1.023327    -1.023327     3.333333
O      1.447203     0.000000    10.000000
O      1.023327     1.023327    10.000000
O      0.000000     1.447203    10.000000
O     -1.023327     1.023327    10.000000
O     -1.447203     0.000000    10.000000
O     -1.023327    -1.023327    10.000000
O     -0.000000    -1.447203    10.000000
O      1.023327    -1.023327    10.000000
