32
Cylindrical pore d=10.50 A
O      5.250000     0.000000   -10.000000
O      3.712311     3.712311   -10.000000
O      0.000000     5.250000   -10.000000
O     -3.712311     3.712311   -10.000000
O     -5.250000     0.000000   -10.000000
O     -3.712311    -3.712311   -10.000000
O     -0.000000    -5.250000   -10.000000
O      3.712311    -3.712311   -10.000000
O      5.250000     0.000000    -3.333333
O      3.712311     3.712311    -3.333333
O      0.000000     5.250000    -3.333333
O     -3.712311     3.712311    -3.333333
O     -5.250000     0.000000    -3.333333
O     -3.712311    -3.712311    -3.333333
O     -0.000000    -5.250000    -3.333333
O      3.712311    -3.712311    -3.333333
O      5.250000     0.000000     3.333333
O      3.712311     3.712311     3.333333
O      0.000000     5.250000     3.333333
O     -3.712311     3.712311     3.333333
O     -5.250000     0.000000     3.333333
O     -3.712311    -3.712311     3.333333
O     -0.000000    -5.250000     3.333333
O      3.712311    -3.712311     3.333333
O      5.250000     0.000000    10.000000
O      3.712311     3.712311    10.000000
O      0.000000     5.250000    10.000000
O     -3.712311     3.712311    10.000000
O     -5.250000     0.000000    10.000000
O     -3.712311    -3.712311    10.000000
O     -0.000000    -5.250000    10.000000
O      3.712311    -3.712311    10.000000
